\* Runway Optimization *\
Minimize
Total_runway_time_used: 105 Variables_A320__A320 + 124 Variables_A320__B752
 + 65 Variables_A320__B77W + 65 Variables_A320__T_A320
 + 130 Variables_A320__T_A320__A320 + 130 Variables_A320__T_A320__B752
 + 130 Variables_A320__T_A320__B77W + 195 Variables_A320__T_A320__T_A320__A320
 + 195 Variables_A320__T_A320__T_A320__B752
 + 195 Variables_A320__T_A320__T_A320__B77W
 + 195 Variables_A320__T_A320__T_B738__A320
 + 195 Variables_A320__T_A320__T_B738__B752
 + 195 Variables_A320__T_A320__T_B738__B77W
 + 195 Variables_A320__T_A320__T_B77W__A320
 + 195 Variables_A320__T_A320__T_B77W__B752
 + 195 Variables_A320__T_A320__T_B77W__B77W + 65 Variables_A320__T_B738
 + 130 Variables_A320__T_B738__A320 + 130 Variables_A320__T_B738__B752
 + 130 Variables_A320__T_B738__B77W + 195 Variables_A320__T_B738__T_A320__A320
 + 195 Variables_A320__T_B738__T_A320__B752
 + 195 Variables_A320__T_B738__T_A320__B77W
 + 195 Variables_A320__T_B738__T_B738__A320
 + 195 Variables_A320__T_B738__T_B738__B752
 + 195 Variables_A320__T_B738__T_B738__B77W
 + 195 Variables_A320__T_B738__T_B77W__A320
 + 195 Variables_A320__T_B738__T_B77W__B752
 + 195 Variables_A320__T_B738__T_B77W__B77W + 65 Variables_A320__T_B77W
 + 130 Variables_A320__T_B77W__A320 + 130 Variables_A320__T_B77W__B752
 + 130 Variables_A320__T_B77W__B77W + 195 Variables_A320__T_B77W__T_A320__A320
 + 195 Variables_A320__T_B77W__T_A320__B752
 + 195 Variables_A320__T_B77W__T_A320__B77W
 + 195 Variables_A320__T_B77W__T_B738__A320
 + 195 Variables_A320__T_B77W__T_B738__B752
 + 195 Variables_A320__T_B77W__T_B738__B77W
 + 195 Variables_A320__T_B77W__T_B77W__A320
 + 195 Variables_A320__T_B77W__T_B77W__B752
 + 195 Variables_A320__T_B77W__T_B77W__B77W + 83 Variables_B752__A320
 + 77 Variables_B752__B752 + 65 Variables_B752__B77W
 + 65 Variables_B752__T_A320 + 130 Variables_B752__T_A320__A320
 + 130 Variables_B752__T_A320__B752 + 130 Variables_B752__T_A320__B77W
 + 195 Variables_B752__T_A320__T_A320__A320
 + 195 Variables_B752__T_A320__T_A320__B752
 + 195 Variables_B752__T_A320__T_A320__B77W
 + 195 Variables_B752__T_A320__T_B738__A320
 + 195 Variables_B752__T_A320__T_B738__B752
 + 195 Variables_B752__T_A320__T_B738__B77W
 + 195 Variables_B752__T_A320__T_B77W__A320
 + 195 Variables_B752__T_A320__T_B77W__B752
 + 195 Variables_B752__T_A320__T_B77W__B77W + 65 Variables_B752__T_B738
 + 130 Variables_B752__T_B738__A320 + 130 Variables_B752__T_B738__B752
 + 130 Variables_B752__T_B738__B77W + 195 Variables_B752__T_B738__T_A320__A320
 + 195 Variables_B752__T_B738__T_A320__B752
 + 195 Variables_B752__T_B738__T_A320__B77W
 + 195 Variables_B752__T_B738__T_B738__A320
 + 195 Variables_B752__T_B738__T_B738__B752
 + 195 Variables_B752__T_B738__T_B738__B77W
 + 195 Variables_B752__T_B738__T_B77W__A320
 + 195 Variables_B752__T_B738__T_B77W__B752
 + 195 Variables_B752__T_B738__T_B77W__B77W + 65 Variables_B752__T_B77W
 + 130 Variables_B752__T_B77W__A320 + 130 Variables_B752__T_B77W__B752
 + 130 Variables_B752__T_B77W__B77W + 195 Variables_B752__T_B77W__T_A320__A320
 + 195 Variables_B752__T_B77W__T_A320__B752
 + 195 Variables_B752__T_B77W__T_A320__B77W
 + 195 Variables_B752__T_B77W__T_B738__A320
 + 195 Variables_B752__T_B77W__T_B738__B752
 + 195 Variables_B752__T_B77W__T_B738__B77W
 + 195 Variables_B752__T_B77W__T_B77W__A320
 + 195 Variables_B752__T_B77W__T_B77W__B752
 + 195 Variables_B752__T_B77W__T_B77W__B77W + 174 Variables_B77W__A320
 + 192 Variables_B77W__B752 + 96 Variables_B77W__B77W
 + 65 Variables_B77W__T_A320 + 174 Variables_B77W__T_A320__A320
 + 192 Variables_B77W__T_A320__B752 + 130 Variables_B77W__T_A320__B77W
 + 195 Variables_B77W__T_A320__T_A320__A320
 + 195 Variables_B77W__T_A320__T_A320__B752
 + 195 Variables_B77W__T_A320__T_A320__B77W
 + 195 Variables_B77W__T_A320__T_B738__A320
 + 195 Variables_B77W__T_A320__T_B738__B752
 + 195 Variables_B77W__T_A320__T_B738__B77W
 + 195 Variables_B77W__T_A320__T_B77W__A320
 + 195 Variables_B77W__T_A320__T_B77W__B752
 + 195 Variables_B77W__T_A320__T_B77W__B77W + 65 Variables_B77W__T_B738
 + 174 Variables_B77W__T_B738__A320 + 192 Variables_B77W__T_B738__B752
 + 130 Variables_B77W__T_B738__B77W + 195 Variables_B77W__T_B738__T_A320__A320
 + 195 Variables_B77W__T_B738__T_A320__B752
 + 195 Variables_B77W__T_B738__T_A320__B77W
 + 195 Variables_B77W__T_B738__T_B738__A320
 + 195 Variables_B77W__T_B738__T_B738__B752
 + 195 Variables_B77W__T_B738__T_B738__B77W
 + 195 Variables_B77W__T_B738__T_B77W__A320
 + 195 Variables_B77W__T_B738__T_B77W__B752
 + 195 Variables_B77W__T_B738__T_B77W__B77W + 65 Variables_B77W__T_B77W
 + 174 Variables_B77W__T_B77W__A320 + 192 Variables_B77W__T_B77W__B752
 + 130 Variables_B77W__T_B77W__B77W + 195 Variables_B77W__T_B77W__T_A320__A320
 + 195 Variables_B77W__T_B77W__T_A320__B752
 + 195 Variables_B77W__T_B77W__T_A320__B77W
 + 195 Variables_B77W__T_B77W__T_B738__A320
 + 195 Variables_B77W__T_B77W__T_B738__B752
 + 195 Variables_B77W__T_B77W__T_B738__B77W
 + 195 Variables_B77W__T_B77W__T_B77W__A320
 + 195 Variables_B77W__T_B77W__T_B77W__B752
 + 195 Variables_B77W__T_B77W__T_B77W__B77W + 65 Variables_T_A320__T_A320
 + 65 Variables_T_A320__T_B738 + 65 Variables_T_A320__T_B77W
 + 65 Variables_T_B738__T_A320 + 65 Variables_T_B738__T_B738
 + 65 Variables_T_B738__T_B77W + 65 Variables_T_B77W__T_A320
 + 65 Variables_T_B77W__T_B738 + 65 Variables_T_B77W__T_B77W
Subject To
Number_of_A320_landed: Variables_0__A320 + Variables_A320__A320
 + Variables_A320__T_A320__A320 + Variables_A320__T_A320__T_A320__A320
 + Variables_A320__T_A320__T_B738__A320 + Variables_A320__T_A320__T_B77W__A320
 + Variables_A320__T_B738__A320 + Variables_A320__T_B738__T_A320__A320
 + Variables_A320__T_B738__T_B738__A320 + Variables_A320__T_B738__T_B77W__A320
 + Variables_A320__T_B77W__A320 + Variables_A320__T_B77W__T_A320__A320
 + Variables_A320__T_B77W__T_B738__A320 + Variables_A320__T_B77W__T_B77W__A320
 + Variables_B752__A320 + Variables_B752__T_A320__A320
 + Variables_B752__T_A320__T_A320__A320 + Variables_B752__T_A320__T_B738__A320
 + Variables_B752__T_A320__T_B77W__A320 + Variables_B752__T_B738__A320
 + Variables_B752__T_B738__T_A320__A320 + Variables_B752__T_B738__T_B738__A320
 + Variables_B752__T_B738__T_B77W__A320 + Variables_B752__T_B77W__A320
 + Variables_B752__T_B77W__T_A320__A320 + Variables_B752__T_B77W__T_B738__A320
 + Variables_B752__T_B77W__T_B77W__A320 + Variables_B77W__A320
 + Variables_B77W__T_A320__A320 + Variables_B77W__T_A320__T_A320__A320
 + Variables_B77W__T_A320__T_B738__A320 + Variables_B77W__T_A320__T_B77W__A320
 + Variables_B77W__T_B738__A320 + Variables_B77W__T_B738__T_A320__A320
 + Variables_B77W__T_B738__T_B738__A320 + Variables_B77W__T_B738__T_B77W__A320
 + Variables_B77W__T_B77W__A320 + Variables_B77W__T_B77W__T_A320__A320
 + Variables_B77W__T_B77W__T_B738__A320 + Variables_B77W__T_B77W__T_B77W__A320
 = 1
Number_of_B752_landed: Variables_0__B752 + Variables_A320__B752
 + Variables_A320__T_A320__B752 + Variables_A320__T_A320__T_A320__B752
 + Variables_A320__T_A320__T_B738__B752 + Variables_A320__T_A320__T_B77W__B752
 + Variables_A320__T_B738__B752 + Variables_A320__T_B738__T_A320__B752
 + Variables_A320__T_B738__T_B738__B752 + Variables_A320__T_B738__T_B77W__B752
 + Variables_A320__T_B77W__B752 + Variables_A320__T_B77W__T_A320__B752
 + Variables_A320__T_B77W__T_B738__B752 + Variables_A320__T_B77W__T_B77W__B752
 + Variables_B752__B752 + Variables_B752__T_A320__B752
 + Variables_B752__T_A320__T_A320__B752 + Variables_B752__T_A320__T_B738__B752
 + Variables_B752__T_A320__T_B77W__B752 + Variables_B752__T_B738__B752
 + Variables_B752__T_B738__T_A320__B752 + Variables_B752__T_B738__T_B738__B752
 + Variables_B752__T_B738__T_B77W__B752 + Variables_B752__T_B77W__B752
 + Variables_B752__T_B77W__T_A320__B752 + Variables_B752__T_B77W__T_B738__B752
 + Variables_B752__T_B77W__T_B77W__B752 + Variables_B77W__B752
 + Variables_B77W__T_A320__B752 + Variables_B77W__T_A320__T_A320__B752
 + Variables_B77W__T_A320__T_B738__B752 + Variables_B77W__T_A320__T_B77W__B752
 + Variables_B77W__T_B738__B752 + Variables_B77W__T_B738__T_A320__B752
 + Variables_B77W__T_B738__T_B738__B752 + Variables_B77W__T_B738__T_B77W__B752
 + Variables_B77W__T_B77W__B752 + Variables_B77W__T_B77W__T_A320__B752
 + Variables_B77W__T_B77W__T_B738__B752 + Variables_B77W__T_B77W__T_B77W__B752
 = 1
Number_of_B77W_landed: Variables_0__B77W + Variables_A320__B77W
 + Variables_A320__T_A320__B77W + Variables_A320__T_A320__T_A320__B77W
 + Variables_A320__T_A320__T_B738__B77W + Variables_A320__T_A320__T_B77W__B77W
 + Variables_A320__T_B738__B77W + Variables_A320__T_B738__T_A320__B77W
 + Variables_A320__T_B738__T_B738__B77W + Variables_A320__T_B738__T_B77W__B77W
 + Variables_A320__T_B77W__B77W + Variables_A320__T_B77W__T_A320__B77W
 + Variables_A320__T_B77W__T_B738__B77W + Variables_A320__T_B77W__T_B77W__B77W
 + Variables_B752__B77W + Variables_B752__T_A320__B77W
 + Variables_B752__T_A320__T_A320__B77W + Variables_B752__T_A320__T_B738__B77W
 + Variables_B752__T_A320__T_B77W__B77W + Variables_B752__T_B738__B77W
 + Variables_B752__T_B738__T_A320__B77W + Variables_B752__T_B738__T_B738__B77W
 + Variables_B752__T_B738__T_B77W__B77W + Variables_B752__T_B77W__B77W
 + Variables_B752__T_B77W__T_A320__B77W + Variables_B752__T_B77W__T_B738__B77W
 + Variables_B752__T_B77W__T_B77W__B77W + Variables_B77W__B77W
 + Variables_B77W__T_A320__B77W + Variables_B77W__T_A320__T_A320__B77W
 + Variables_B77W__T_A320__T_B738__B77W + Variables_B77W__T_A320__T_B77W__B77W
 + Variables_B77W__T_B738__B77W + Variables_B77W__T_B738__T_A320__B77W
 + Variables_B77W__T_B738__T_B738__B77W + Variables_B77W__T_B738__T_B77W__B77W
 + Variables_B77W__T_B77W__B77W + Variables_B77W__T_B77W__T_A320__B77W
 + Variables_B77W__T_B77W__T_B738__B77W + Variables_B77W__T_B77W__T_B77W__B77W
 = 3
Number_of_take_offs_of_A320: Variables_A320__T_A320
 + Variables_A320__T_A320__A320 + Variables_A320__T_A320__B752
 + Variables_A320__T_A320__B77W + 2 Variables_A320__T_A320__T_A320__A320
 + 2 Variables_A320__T_A320__T_A320__B752
 + 2 Variables_A320__T_A320__T_A320__B77W
 + Variables_A320__T_A320__T_B738__A320 + Variables_A320__T_A320__T_B738__B752
 + Variables_A320__T_A320__T_B738__B77W + Variables_A320__T_A320__T_B77W__A320
 + Variables_A320__T_A320__T_B77W__B752 + Variables_A320__T_A320__T_B77W__B77W
 + Variables_A320__T_B738__T_A320__A320 + Variables_A320__T_B738__T_A320__B752
 + Variables_A320__T_B738__T_A320__B77W + Variables_A320__T_B77W__T_A320__A320
 + Variables_A320__T_B77W__T_A320__B752 + Variables_A320__T_B77W__T_A320__B77W
 + Variables_B752__T_A320 + Variables_B752__T_A320__A320
 + Variables_B752__T_A320__B752 + Variables_B752__T_A320__B77W
 + 2 Variables_B752__T_A320__T_A320__A320
 + 2 Variables_B752__T_A320__T_A320__B752
 + 2 Variables_B752__T_A320__T_A320__B77W
 + Variables_B752__T_A320__T_B738__A320 + Variables_B752__T_A320__T_B738__B752
 + Variables_B752__T_A320__T_B738__B77W + Variables_B752__T_A320__T_B77W__A320
 + Variables_B752__T_A320__T_B77W__B752 + Variables_B752__T_A320__T_B77W__B77W
 + Variables_B752__T_B738__T_A320__A320 + Variables_B752__T_B738__T_A320__B752
 + Variables_B752__T_B738__T_A320__B77W + Variables_B752__T_B77W__T_A320__A320
 + Variables_B752__T_B77W__T_A320__B752 + Variables_B752__T_B77W__T_A320__B77W
 + Variables_B77W__T_A320 + Variables_B77W__T_A320__A320
 + Variables_B77W__T_A320__B752 + Variables_B77W__T_A320__B77W
 + 2 Variables_B77W__T_A320__T_A320__A320
 + 2 Variables_B77W__T_A320__T_A320__B752
 + 2 Variables_B77W__T_A320__T_A320__B77W
 + Variables_B77W__T_A320__T_B738__A320 + Variables_B77W__T_A320__T_B738__B752
 + Variables_B77W__T_A320__T_B738__B77W + Variables_B77W__T_A320__T_B77W__A320
 + Variables_B77W__T_A320__T_B77W__B752 + Variables_B77W__T_A320__T_B77W__B77W
 + Variables_B77W__T_B738__T_A320__A320 + Variables_B77W__T_B738__T_A320__B752
 + Variables_B77W__T_B738__T_A320__B77W + Variables_B77W__T_B77W__T_A320__A320
 + Variables_B77W__T_B77W__T_A320__B752 + Variables_B77W__T_B77W__T_A320__B77W
 + Variables_T_A320__T_A320 + Variables_T_B738__T_A320
 + Variables_T_B77W__T_A320 = 1
Number_of_take_offs_of_B738: Variables_A320__T_A320__T_B738__A320
 + Variables_A320__T_A320__T_B738__B752 + Variables_A320__T_A320__T_B738__B77W
 + Variables_A320__T_B738 + Variables_A320__T_B738__A320
 + Variables_A320__T_B738__B752 + Variables_A320__T_B738__B77W
 + Variables_A320__T_B738__T_A320__A320 + Variables_A320__T_B738__T_A320__B752
 + Variables_A320__T_B738__T_A320__B77W
 + 2 Variables_A320__T_B738__T_B738__A320
 + 2 Variables_A320__T_B738__T_B738__B752
 + 2 Variables_A320__T_B738__T_B738__B77W
 + Variables_A320__T_B738__T_B77W__A320 + Variables_A320__T_B738__T_B77W__B752
 + Variables_A320__T_B738__T_B77W__B77W + Variables_A320__T_B77W__T_B738__A320
 + Variables_A320__T_B77W__T_B738__B752 + Variables_A320__T_B77W__T_B738__B77W
 + Variables_B752__T_A320__T_B738__A320 + Variables_B752__T_A320__T_B738__B752
 + Variables_B752__T_A320__T_B738__B77W + Variables_B752__T_B738
 + Variables_B752__T_B738__A320 + Variables_B752__T_B738__B752
 + Variables_B752__T_B738__B77W + Variables_B752__T_B738__T_A320__A320
 + Variables_B752__T_B738__T_A320__B752 + Variables_B752__T_B738__T_A320__B77W
 + 2 Variables_B752__T_B738__T_B738__A320
 + 2 Variables_B752__T_B738__T_B738__B752
 + 2 Variables_B752__T_B738__T_B738__B77W
 + Variables_B752__T_B738__T_B77W__A320 + Variables_B752__T_B738__T_B77W__B752
 + Variables_B752__T_B738__T_B77W__B77W + Variables_B752__T_B77W__T_B738__A320
 + Variables_B752__T_B77W__T_B738__B752 + Variables_B752__T_B77W__T_B738__B77W
 + Variables_B77W__T_A320__T_B738__A320 + Variables_B77W__T_A320__T_B738__B752
 + Variables_B77W__T_A320__T_B738__B77W + Variables_B77W__T_B738
 + Variables_B77W__T_B738__A320 + Variables_B77W__T_B738__B752
 + Variables_B77W__T_B738__B77W + Variables_B77W__T_B738__T_A320__A320
 + Variables_B77W__T_B738__T_A320__B752 + Variables_B77W__T_B738__T_A320__B77W
 + 2 Variables_B77W__T_B738__T_B738__A320
 + 2 Variables_B77W__T_B738__T_B738__B752
 + 2 Variables_B77W__T_B738__T_B738__B77W
 + Variables_B77W__T_B738__T_B77W__A320 + Variables_B77W__T_B738__T_B77W__B752
 + Variables_B77W__T_B738__T_B77W__B77W + Variables_B77W__T_B77W__T_B738__A320
 + Variables_B77W__T_B77W__T_B738__B752 + Variables_B77W__T_B77W__T_B738__B77W
 + Variables_T_A320__T_B738 + Variables_T_B738__T_B738
 + Variables_T_B77W__T_B738 = 3
Number_of_take_offs_of_B77W: Variables_A320__T_A320__T_B77W__A320
 + Variables_A320__T_A320__T_B77W__B752 + Variables_A320__T_A320__T_B77W__B77W
 + Variables_A320__T_B738__T_B77W__A320 + Variables_A320__T_B738__T_B77W__B752
 + Variables_A320__T_B738__T_B77W__B77W + Variables_A320__T_B77W
 + Variables_A320__T_B77W__A320 + Variables_A320__T_B77W__B752
 + Variables_A320__T_B77W__B77W + Variables_A320__T_B77W__T_A320__A320
 + Variables_A320__T_B77W__T_A320__B752 + Variables_A320__T_B77W__T_A320__B77W
 + Variables_A320__T_B77W__T_B738__A320 + Variables_A320__T_B77W__T_B738__B752
 + Variables_A320__T_B77W__T_B738__B77W
 + 2 Variables_A320__T_B77W__T_B77W__A320
 + 2 Variables_A320__T_B77W__T_B77W__B752
 + 2 Variables_A320__T_B77W__T_B77W__B77W
 + Variables_B752__T_A320__T_B77W__A320 + Variables_B752__T_A320__T_B77W__B752
 + Variables_B752__T_A320__T_B77W__B77W + Variables_B752__T_B738__T_B77W__A320
 + Variables_B752__T_B738__T_B77W__B752 + Variables_B752__T_B738__T_B77W__B77W
 + Variables_B752__T_B77W + Variables_B752__T_B77W__A320
 + Variables_B752__T_B77W__B752 + Variables_B752__T_B77W__B77W
 + Variables_B752__T_B77W__T_A320__A320 + Variables_B752__T_B77W__T_A320__B752
 + Variables_B752__T_B77W__T_A320__B77W + Variables_B752__T_B77W__T_B738__A320
 + Variables_B752__T_B77W__T_B738__B752 + Variables_B752__T_B77W__T_B738__B77W
 + 2 Variables_B752__T_B77W__T_B77W__A320
 + 2 Variables_B752__T_B77W__T_B77W__B752
 + 2 Variables_B752__T_B77W__T_B77W__B77W
 + Variables_B77W__T_A320__T_B77W__A320 + Variables_B77W__T_A320__T_B77W__B752
 + Variables_B77W__T_A320__T_B77W__B77W + Variables_B77W__T_B738__T_B77W__A320
 + Variables_B77W__T_B738__T_B77W__B752 + Variables_B77W__T_B738__T_B77W__B77W
 + Variables_B77W__T_B77W + Variables_B77W__T_B77W__A320
 + Variables_B77W__T_B77W__B752 + Variables_B77W__T_B77W__B77W
 + Variables_B77W__T_B77W__T_A320__A320 + Variables_B77W__T_B77W__T_A320__B752
 + Variables_B77W__T_B77W__T_A320__B77W + Variables_B77W__T_B77W__T_B738__A320
 + Variables_B77W__T_B77W__T_B738__B752 + Variables_B77W__T_B77W__T_B738__B77W
 + 2 Variables_B77W__T_B77W__T_B77W__A320
 + 2 Variables_B77W__T_B77W__T_B77W__B752
 + 2 Variables_B77W__T_B77W__T_B77W__B77W + Variables_T_A320__T_B77W
 + Variables_T_B738__T_B77W + Variables_T_B77W__T_B77W = 2
_C1: Variables_0__B77W = 1
head_tails_constraint_of_A320: Variables_0__A320 - Variables_A320__0
 + 0 Variables_A320__A320 - Variables_A320__B752 - Variables_A320__B77W
 - Variables_A320__T_A320 + 0 Variables_A320__T_A320__A320
 - Variables_A320__T_A320__B752 - Variables_A320__T_A320__B77W
 + 0 Variables_A320__T_A320__T_A320__A320
 - Variables_A320__T_A320__T_A320__B752 - Variables_A320__T_A320__T_A320__B77W
 + 0 Variables_A320__T_A320__T_B738__A320
 - Variables_A320__T_A320__T_B738__B752 - Variables_A320__T_A320__T_B738__B77W
 + 0 Variables_A320__T_A320__T_B77W__A320
 - Variables_A320__T_A320__T_B77W__B752 - Variables_A320__T_A320__T_B77W__B77W
 - Variables_A320__T_B738 + 0 Variables_A320__T_B738__A320
 - Variables_A320__T_B738__B752 - Variables_A320__T_B738__B77W
 + 0 Variables_A320__T_B738__T_A320__A320
 - Variables_A320__T_B738__T_A320__B752 - Variables_A320__T_B738__T_A320__B77W
 + 0 Variables_A320__T_B738__T_B738__A320
 - Variables_A320__T_B738__T_B738__B752 - Variables_A320__T_B738__T_B738__B77W
 + 0 Variables_A320__T_B738__T_B77W__A320
 - Variables_A320__T_B738__T_B77W__B752 - Variables_A320__T_B738__T_B77W__B77W
 - Variables_A320__T_B77W + 0 Variables_A320__T_B77W__A320
 - Variables_A320__T_B77W__B752 - Variables_A320__T_B77W__B77W
 + 0 Variables_A320__T_B77W__T_A320__A320
 - Variables_A320__T_B77W__T_A320__B752 - Variables_A320__T_B77W__T_A320__B77W
 + 0 Variables_A320__T_B77W__T_B738__A320
 - Variables_A320__T_B77W__T_B738__B752 - Variables_A320__T_B77W__T_B738__B77W
 + 0 Variables_A320__T_B77W__T_B77W__A320
 - Variables_A320__T_B77W__T_B77W__B752 - Variables_A320__T_B77W__T_B77W__B77W
 + Variables_B752__A320 + Variables_B752__T_A320__A320
 + Variables_B752__T_A320__T_A320__A320 + Variables_B752__T_A320__T_B738__A320
 + Variables_B752__T_A320__T_B77W__A320 + Variables_B752__T_B738__A320
 + Variables_B752__T_B738__T_A320__A320 + Variables_B752__T_B738__T_B738__A320
 + Variables_B752__T_B738__T_B77W__A320 + Variables_B752__T_B77W__A320
 + Variables_B752__T_B77W__T_A320__A320 + Variables_B752__T_B77W__T_B738__A320
 + Variables_B752__T_B77W__T_B77W__A320 + Variables_B77W__A320
 + Variables_B77W__T_A320__A320 + Variables_B77W__T_A320__T_A320__A320
 + Variables_B77W__T_A320__T_B738__A320 + Variables_B77W__T_A320__T_B77W__A320
 + Variables_B77W__T_B738__A320 + Variables_B77W__T_B738__T_A320__A320
 + Variables_B77W__T_B738__T_B738__A320 + Variables_B77W__T_B738__T_B77W__A320
 + Variables_B77W__T_B77W__A320 + Variables_B77W__T_B77W__T_A320__A320
 + Variables_B77W__T_B77W__T_B738__A320 + Variables_B77W__T_B77W__T_B77W__A320
 = 0
head_tails_constraint_of_B752: Variables_0__B752 + Variables_A320__B752
 + Variables_A320__T_A320__B752 + Variables_A320__T_A320__T_A320__B752
 + Variables_A320__T_A320__T_B738__B752 + Variables_A320__T_A320__T_B77W__B752
 + Variables_A320__T_B738__B752 + Variables_A320__T_B738__T_A320__B752
 + Variables_A320__T_B738__T_B738__B752 + Variables_A320__T_B738__T_B77W__B752
 + Variables_A320__T_B77W__B752 + Variables_A320__T_B77W__T_A320__B752
 + Variables_A320__T_B77W__T_B738__B752 + Variables_A320__T_B77W__T_B77W__B752
 - Variables_B752__0 - Variables_B752__A320 + 0 Variables_B752__B752
 - Variables_B752__B77W - Variables_B752__T_A320
 - Variables_B752__T_A320__A320 + 0 Variables_B752__T_A320__B752
 - Variables_B752__T_A320__B77W - Variables_B752__T_A320__T_A320__A320
 + 0 Variables_B752__T_A320__T_A320__B752
 - Variables_B752__T_A320__T_A320__B77W - Variables_B752__T_A320__T_B738__A320
 + 0 Variables_B752__T_A320__T_B738__B752
 - Variables_B752__T_A320__T_B738__B77W - Variables_B752__T_A320__T_B77W__A320
 + 0 Variables_B752__T_A320__T_B77W__B752
 - Variables_B752__T_A320__T_B77W__B77W - Variables_B752__T_B738
 - Variables_B752__T_B738__A320 + 0 Variables_B752__T_B738__B752
 - Variables_B752__T_B738__B77W - Variables_B752__T_B738__T_A320__A320
 + 0 Variables_B752__T_B738__T_A320__B752
 - Variables_B752__T_B738__T_A320__B77W - Variables_B752__T_B738__T_B738__A320
 + 0 Variables_B752__T_B738__T_B738__B752
 - Variables_B752__T_B738__T_B738__B77W - Variables_B752__T_B738__T_B77W__A320
 + 0 Variables_B752__T_B738__T_B77W__B752
 - Variables_B752__T_B738__T_B77W__B77W - Variables_B752__T_B77W
 - Variables_B752__T_B77W__A320 + 0 Variables_B752__T_B77W__B752
 - Variables_B752__T_B77W__B77W - Variables_B752__T_B77W__T_A320__A320
 + 0 Variables_B752__T_B77W__T_A320__B752
 - Variables_B752__T_B77W__T_A320__B77W - Variables_B752__T_B77W__T_B738__A320
 + 0 Variables_B752__T_B77W__T_B738__B752
 - Variables_B752__T_B77W__T_B738__B77W - Variables_B752__T_B77W__T_B77W__A320
 + 0 Variables_B752__T_B77W__T_B77W__B752
 - Variables_B752__T_B77W__T_B77W__B77W + Variables_B77W__B752
 + Variables_B77W__T_A320__B752 + Variables_B77W__T_A320__T_A320__B752
 + Variables_B77W__T_A320__T_B738__B752 + Variables_B77W__T_A320__T_B77W__B752
 + Variables_B77W__T_B738__B752 + Variables_B77W__T_B738__T_A320__B752
 + Variables_B77W__T_B738__T_B738__B752 + Variables_B77W__T_B738__T_B77W__B752
 + Variables_B77W__T_B77W__B752 + Variables_B77W__T_B77W__T_A320__B752
 + Variables_B77W__T_B77W__T_B738__B752 + Variables_B77W__T_B77W__T_B77W__B752
 = 0
head_tails_constraint_of_B77W: Variables_0__B77W + Variables_A320__B77W
 + Variables_A320__T_A320__B77W + Variables_A320__T_A320__T_A320__B77W
 + Variables_A320__T_A320__T_B738__B77W + Variables_A320__T_A320__T_B77W__B77W
 + Variables_A320__T_B738__B77W + Variables_A320__T_B738__T_A320__B77W
 + Variables_A320__T_B738__T_B738__B77W + Variables_A320__T_B738__T_B77W__B77W
 + Variables_A320__T_B77W__B77W + Variables_A320__T_B77W__T_A320__B77W
 + Variables_A320__T_B77W__T_B738__B77W + Variables_A320__T_B77W__T_B77W__B77W
 + Variables_B752__B77W + Variables_B752__T_A320__B77W
 + Variables_B752__T_A320__T_A320__B77W + Variables_B752__T_A320__T_B738__B77W
 + Variables_B752__T_A320__T_B77W__B77W + Variables_B752__T_B738__B77W
 + Variables_B752__T_B738__T_A320__B77W + Variables_B752__T_B738__T_B738__B77W
 + Variables_B752__T_B738__T_B77W__B77W + Variables_B752__T_B77W__B77W
 + Variables_B752__T_B77W__T_A320__B77W + Variables_B752__T_B77W__T_B738__B77W
 + Variables_B752__T_B77W__T_B77W__B77W - Variables_B77W__0
 - Variables_B77W__A320 - Variables_B77W__B752 + 0 Variables_B77W__B77W
 - Variables_B77W__T_A320 - Variables_B77W__T_A320__A320
 - Variables_B77W__T_A320__B752 + 0 Variables_B77W__T_A320__B77W
 - Variables_B77W__T_A320__T_A320__A320 - Variables_B77W__T_A320__T_A320__B752
 + 0 Variables_B77W__T_A320__T_A320__B77W
 - Variables_B77W__T_A320__T_B738__A320 - Variables_B77W__T_A320__T_B738__B752
 + 0 Variables_B77W__T_A320__T_B738__B77W
 - Variables_B77W__T_A320__T_B77W__A320 - Variables_B77W__T_A320__T_B77W__B752
 + 0 Variables_B77W__T_A320__T_B77W__B77W - Variables_B77W__T_B738
 - Variables_B77W__T_B738__A320 - Variables_B77W__T_B738__B752
 + 0 Variables_B77W__T_B738__B77W - Variables_B77W__T_B738__T_A320__A320
 - Variables_B77W__T_B738__T_A320__B752
 + 0 Variables_B77W__T_B738__T_A320__B77W
 - Variables_B77W__T_B738__T_B738__A320 - Variables_B77W__T_B738__T_B738__B752
 + 0 Variables_B77W__T_B738__T_B738__B77W
 - Variables_B77W__T_B738__T_B77W__A320 - Variables_B77W__T_B738__T_B77W__B752
 + 0 Variables_B77W__T_B738__T_B77W__B77W - Variables_B77W__T_B77W
 - Variables_B77W__T_B77W__A320 - Variables_B77W__T_B77W__B752
 + 0 Variables_B77W__T_B77W__B77W - Variables_B77W__T_B77W__T_A320__A320
 - Variables_B77W__T_B77W__T_A320__B752
 + 0 Variables_B77W__T_B77W__T_A320__B77W
 - Variables_B77W__T_B77W__T_B738__A320 - Variables_B77W__T_B77W__T_B738__B752
 + 0 Variables_B77W__T_B77W__T_B738__B77W
 - Variables_B77W__T_B77W__T_B77W__A320 - Variables_B77W__T_B77W__T_B77W__B752
 + 0 Variables_B77W__T_B77W__T_B77W__B77W = 0
last_plane_criterion: Variables_A320__0 + Variables_B752__0
 + Variables_B77W__0 + Variables_T_A320__0 + Variables_T_B738__0
 + Variables_T_B77W__0 = 1
starting_plane_criterion: Variables_0__A320 + Variables_0__B752
 + Variables_0__B77W = 1
switch_to_A320: Variables_0__A320 + Variables_B752__A320
 + Variables_B752__T_A320__A320 + Variables_B752__T_A320__T_A320__A320
 + Variables_B752__T_A320__T_B738__A320 + Variables_B752__T_A320__T_B77W__A320
 + Variables_B752__T_B738__A320 + Variables_B752__T_B738__T_A320__A320
 + Variables_B752__T_B738__T_B738__A320 + Variables_B752__T_B738__T_B77W__A320
 + Variables_B752__T_B77W__A320 + Variables_B752__T_B77W__T_A320__A320
 + Variables_B752__T_B77W__T_B738__A320 + Variables_B752__T_B77W__T_B77W__A320
 + Variables_B77W__A320 + Variables_B77W__T_A320__A320
 + Variables_B77W__T_A320__T_A320__A320 + Variables_B77W__T_A320__T_B738__A320
 + Variables_B77W__T_A320__T_B77W__A320 + Variables_B77W__T_B738__A320
 + Variables_B77W__T_B738__T_A320__A320 + Variables_B77W__T_B738__T_B738__A320
 + Variables_B77W__T_B738__T_B77W__A320 + Variables_B77W__T_B77W__A320
 + Variables_B77W__T_B77W__T_A320__A320 + Variables_B77W__T_B77W__T_B738__A320
 + Variables_B77W__T_B77W__T_B77W__A320 >= 1
switch_to_B752: Variables_0__B752 + Variables_A320__B752
 + Variables_A320__T_A320__B752 + Variables_A320__T_A320__T_A320__B752
 + Variables_A320__T_A320__T_B738__B752 + Variables_A320__T_A320__T_B77W__B752
 + Variables_A320__T_B738__B752 + Variables_A320__T_B738__T_A320__B752
 + Variables_A320__T_B738__T_B738__B752 + Variables_A320__T_B738__T_B77W__B752
 + Variables_A320__T_B77W__B752 + Variables_A320__T_B77W__T_A320__B752
 + Variables_A320__T_B77W__T_B738__B752 + Variables_A320__T_B77W__T_B77W__B752
 + Variables_B77W__B752 + Variables_B77W__T_A320__B752
 + Variables_B77W__T_A320__T_A320__B752 + Variables_B77W__T_A320__T_B738__B752
 + Variables_B77W__T_A320__T_B77W__B752 + Variables_B77W__T_B738__B752
 + Variables_B77W__T_B738__T_A320__B752 + Variables_B77W__T_B738__T_B738__B752
 + Variables_B77W__T_B738__T_B77W__B752 + Variables_B77W__T_B77W__B752
 + Variables_B77W__T_B77W__T_A320__B752 + Variables_B77W__T_B77W__T_B738__B752
 + Variables_B77W__T_B77W__T_B77W__B752 >= 1
switch_to_B77W: Variables_0__B77W + Variables_A320__B77W
 + Variables_A320__T_A320__B77W + Variables_A320__T_A320__T_A320__B77W
 + Variables_A320__T_A320__T_B738__B77W + Variables_A320__T_A320__T_B77W__B77W
 + Variables_A320__T_B738__B77W + Variables_A320__T_B738__T_A320__B77W
 + Variables_A320__T_B738__T_B738__B77W + Variables_A320__T_B738__T_B77W__B77W
 + Variables_A320__T_B77W__B77W + Variables_A320__T_B77W__T_A320__B77W
 + Variables_A320__T_B77W__T_B738__B77W + Variables_A320__T_B77W__T_B77W__B77W
 + Variables_B752__B77W + Variables_B752__T_A320__B77W
 + Variables_B752__T_A320__T_A320__B77W + Variables_B752__T_A320__T_B738__B77W
 + Variables_B752__T_A320__T_B77W__B77W + Variables_B752__T_B738__B77W
 + Variables_B752__T_B738__T_A320__B77W + Variables_B752__T_B738__T_B738__B77W
 + Variables_B752__T_B738__T_B77W__B77W + Variables_B752__T_B77W__B77W
 + Variables_B752__T_B77W__T_A320__B77W + Variables_B752__T_B77W__T_B738__B77W
 + Variables_B752__T_B77W__T_B77W__B77W >= 1
Bounds
0 <= Variables_0__A320
0 <= Variables_0__B752
0 <= Variables_0__B77W
0 <= Variables_A320__0
0 <= Variables_A320__A320
0 <= Variables_A320__B752
0 <= Variables_A320__B77W
0 <= Variables_A320__T_A320
0 <= Variables_A320__T_A320__A320
0 <= Variables_A320__T_A320__B752
0 <= Variables_A320__T_A320__B77W
0 <= Variables_A320__T_A320__T_A320__A320
0 <= Variables_A320__T_A320__T_A320__B752
0 <= Variables_A320__T_A320__T_A320__B77W
0 <= Variables_A320__T_A320__T_B738__A320
0 <= Variables_A320__T_A320__T_B738__B752
0 <= Variables_A320__T_A320__T_B738__B77W
0 <= Variables_A320__T_A320__T_B77W__A320
0 <= Variables_A320__T_A320__T_B77W__B752
0 <= Variables_A320__T_A320__T_B77W__B77W
0 <= Variables_A320__T_B738
0 <= Variables_A320__T_B738__A320
0 <= Variables_A320__T_B738__B752
0 <= Variables_A320__T_B738__B77W
0 <= Variables_A320__T_B738__T_A320__A320
0 <= Variables_A320__T_B738__T_A320__B752
0 <= Variables_A320__T_B738__T_A320__B77W
0 <= Variables_A320__T_B738__T_B738__A320
0 <= Variables_A320__T_B738__T_B738__B752
0 <= Variables_A320__T_B738__T_B738__B77W
0 <= Variables_A320__T_B738__T_B77W__A320
0 <= Variables_A320__T_B738__T_B77W__B752
0 <= Variables_A320__T_B738__T_B77W__B77W
0 <= Variables_A320__T_B77W
0 <= Variables_A320__T_B77W__A320
0 <= Variables_A320__T_B77W__B752
0 <= Variables_A320__T_B77W__B77W
0 <= Variables_A320__T_B77W__T_A320__A320
0 <= Variables_A320__T_B77W__T_A320__B752
0 <= Variables_A320__T_B77W__T_A320__B77W
0 <= Variables_A320__T_B77W__T_B738__A320
0 <= Variables_A320__T_B77W__T_B738__B752
0 <= Variables_A320__T_B77W__T_B738__B77W
0 <= Variables_A320__T_B77W__T_B77W__A320
0 <= Variables_A320__T_B77W__T_B77W__B752
0 <= Variables_A320__T_B77W__T_B77W__B77W
0 <= Variables_B752__0
0 <= Variables_B752__A320
0 <= Variables_B752__B752
0 <= Variables_B752__B77W
0 <= Variables_B752__T_A320
0 <= Variables_B752__T_A320__A320
0 <= Variables_B752__T_A320__B752
0 <= Variables_B752__T_A320__B77W
0 <= Variables_B752__T_A320__T_A320__A320
0 <= Variables_B752__T_A320__T_A320__B752
0 <= Variables_B752__T_A320__T_A320__B77W
0 <= Variables_B752__T_A320__T_B738__A320
0 <= Variables_B752__T_A320__T_B738__B752
0 <= Variables_B752__T_A320__T_B738__B77W
0 <= Variables_B752__T_A320__T_B77W__A320
0 <= Variables_B752__T_A320__T_B77W__B752
0 <= Variables_B752__T_A320__T_B77W__B77W
0 <= Variables_B752__T_B738
0 <= Variables_B752__T_B738__A320
0 <= Variables_B752__T_B738__B752
0 <= Variables_B752__T_B738__B77W
0 <= Variables_B752__T_B738__T_A320__A320
0 <= Variables_B752__T_B738__T_A320__B752
0 <= Variables_B752__T_B738__T_A320__B77W
0 <= Variables_B752__T_B738__T_B738__A320
0 <= Variables_B752__T_B738__T_B738__B752
0 <= Variables_B752__T_B738__T_B738__B77W
0 <= Variables_B752__T_B738__T_B77W__A320
0 <= Variables_B752__T_B738__T_B77W__B752
0 <= Variables_B752__T_B738__T_B77W__B77W
0 <= Variables_B752__T_B77W
0 <= Variables_B752__T_B77W__A320
0 <= Variables_B752__T_B77W__B752
0 <= Variables_B752__T_B77W__B77W
0 <= Variables_B752__T_B77W__T_A320__A320
0 <= Variables_B752__T_B77W__T_A320__B752
0 <= Variables_B752__T_B77W__T_A320__B77W
0 <= Variables_B752__T_B77W__T_B738__A320
0 <= Variables_B752__T_B77W__T_B738__B752
0 <= Variables_B752__T_B77W__T_B738__B77W
0 <= Variables_B752__T_B77W__T_B77W__A320
0 <= Variables_B752__T_B77W__T_B77W__B752
0 <= Variables_B752__T_B77W__T_B77W__B77W
0 <= Variables_B77W__0
0 <= Variables_B77W__A320
0 <= Variables_B77W__B752
0 <= Variables_B77W__B77W
0 <= Variables_B77W__T_A320
0 <= Variables_B77W__T_A320__A320
0 <= Variables_B77W__T_A320__B752
0 <= Variables_B77W__T_A320__B77W
0 <= Variables_B77W__T_A320__T_A320__A320
0 <= Variables_B77W__T_A320__T_A320__B752
0 <= Variables_B77W__T_A320__T_A320__B77W
0 <= Variables_B77W__T_A320__T_B738__A320
0 <= Variables_B77W__T_A320__T_B738__B752
0 <= Variables_B77W__T_A320__T_B738__B77W
0 <= Variables_B77W__T_A320__T_B77W__A320
0 <= Variables_B77W__T_A320__T_B77W__B752
0 <= Variables_B77W__T_A320__T_B77W__B77W
0 <= Variables_B77W__T_B738
0 <= Variables_B77W__T_B738__A320
0 <= Variables_B77W__T_B738__B752
0 <= Variables_B77W__T_B738__B77W
0 <= Variables_B77W__T_B738__T_A320__A320
0 <= Variables_B77W__T_B738__T_A320__B752
0 <= Variables_B77W__T_B738__T_A320__B77W
0 <= Variables_B77W__T_B738__T_B738__A320
0 <= Variables_B77W__T_B738__T_B738__B752
0 <= Variables_B77W__T_B738__T_B738__B77W
0 <= Variables_B77W__T_B738__T_B77W__A320
0 <= Variables_B77W__T_B738__T_B77W__B752
0 <= Variables_B77W__T_B738__T_B77W__B77W
0 <= Variables_B77W__T_B77W
0 <= Variables_B77W__T_B77W__A320
0 <= Variables_B77W__T_B77W__B752
0 <= Variables_B77W__T_B77W__B77W
0 <= Variables_B77W__T_B77W__T_A320__A320
0 <= Variables_B77W__T_B77W__T_A320__B752
0 <= Variables_B77W__T_B77W__T_A320__B77W
0 <= Variables_B77W__T_B77W__T_B738__A320
0 <= Variables_B77W__T_B77W__T_B738__B752
0 <= Variables_B77W__T_B77W__T_B738__B77W
0 <= Variables_B77W__T_B77W__T_B77W__A320
0 <= Variables_B77W__T_B77W__T_B77W__B752
0 <= Variables_B77W__T_B77W__T_B77W__B77W
0 <= Variables_T_A320__0
0 <= Variables_T_A320__T_A320
0 <= Variables_T_A320__T_B738
0 <= Variables_T_A320__T_B77W
0 <= Variables_T_B738__0
0 <= Variables_T_B738__T_A320
0 <= Variables_T_B738__T_B738
0 <= Variables_T_B738__T_B77W
0 <= Variables_T_B77W__0
0 <= Variables_T_B77W__T_A320
0 <= Variables_T_B77W__T_B738
0 <= Variables_T_B77W__T_B77W
Generals
Variables_0__A320
Variables_0__B752
Variables_0__B77W
Variables_A320__0
Variables_A320__A320
Variables_A320__B752
Variables_A320__B77W
Variables_A320__T_A320
Variables_A320__T_A320__A320
Variables_A320__T_A320__B752
Variables_A320__T_A320__B77W
Variables_A320__T_A320__T_A320__A320
Variables_A320__T_A320__T_A320__B752
Variables_A320__T_A320__T_A320__B77W
Variables_A320__T_A320__T_B738__A320
Variables_A320__T_A320__T_B738__B752
Variables_A320__T_A320__T_B738__B77W
Variables_A320__T_A320__T_B77W__A320
Variables_A320__T_A320__T_B77W__B752
Variables_A320__T_A320__T_B77W__B77W
Variables_A320__T_B738
Variables_A320__T_B738__A320
Variables_A320__T_B738__B752
Variables_A320__T_B738__B77W
Variables_A320__T_B738__T_A320__A320
Variables_A320__T_B738__T_A320__B752
Variables_A320__T_B738__T_A320__B77W
Variables_A320__T_B738__T_B738__A320
Variables_A320__T_B738__T_B738__B752
Variables_A320__T_B738__T_B738__B77W
Variables_A320__T_B738__T_B77W__A320
Variables_A320__T_B738__T_B77W__B752
Variables_A320__T_B738__T_B77W__B77W
Variables_A320__T_B77W
Variables_A320__T_B77W__A320
Variables_A320__T_B77W__B752
Variables_A320__T_B77W__B77W
Variables_A320__T_B77W__T_A320__A320
Variables_A320__T_B77W__T_A320__B752
Variables_A320__T_B77W__T_A320__B77W
Variables_A320__T_B77W__T_B738__A320
Variables_A320__T_B77W__T_B738__B752
Variables_A320__T_B77W__T_B738__B77W
Variables_A320__T_B77W__T_B77W__A320
Variables_A320__T_B77W__T_B77W__B752
Variables_A320__T_B77W__T_B77W__B77W
Variables_B752__0
Variables_B752__A320
Variables_B752__B752
Variables_B752__B77W
Variables_B752__T_A320
Variables_B752__T_A320__A320
Variables_B752__T_A320__B752
Variables_B752__T_A320__B77W
Variables_B752__T_A320__T_A320__A320
Variables_B752__T_A320__T_A320__B752
Variables_B752__T_A320__T_A320__B77W
Variables_B752__T_A320__T_B738__A320
Variables_B752__T_A320__T_B738__B752
Variables_B752__T_A320__T_B738__B77W
Variables_B752__T_A320__T_B77W__A320
Variables_B752__T_A320__T_B77W__B752
Variables_B752__T_A320__T_B77W__B77W
Variables_B752__T_B738
Variables_B752__T_B738__A320
Variables_B752__T_B738__B752
Variables_B752__T_B738__B77W
Variables_B752__T_B738__T_A320__A320
Variables_B752__T_B738__T_A320__B752
Variables_B752__T_B738__T_A320__B77W
Variables_B752__T_B738__T_B738__A320
Variables_B752__T_B738__T_B738__B752
Variables_B752__T_B738__T_B738__B77W
Variables_B752__T_B738__T_B77W__A320
Variables_B752__T_B738__T_B77W__B752
Variables_B752__T_B738__T_B77W__B77W
Variables_B752__T_B77W
Variables_B752__T_B77W__A320
Variables_B752__T_B77W__B752
Variables_B752__T_B77W__B77W
Variables_B752__T_B77W__T_A320__A320
Variables_B752__T_B77W__T_A320__B752
Variables_B752__T_B77W__T_A320__B77W
Variables_B752__T_B77W__T_B738__A320
Variables_B752__T_B77W__T_B738__B752
Variables_B752__T_B77W__T_B738__B77W
Variables_B752__T_B77W__T_B77W__A320
Variables_B752__T_B77W__T_B77W__B752
Variables_B752__T_B77W__T_B77W__B77W
Variables_B77W__0
Variables_B77W__A320
Variables_B77W__B752
Variables_B77W__B77W
Variables_B77W__T_A320
Variables_B77W__T_A320__A320
Variables_B77W__T_A320__B752
Variables_B77W__T_A320__B77W
Variables_B77W__T_A320__T_A320__A320
Variables_B77W__T_A320__T_A320__B752
Variables_B77W__T_A320__T_A320__B77W
Variables_B77W__T_A320__T_B738__A320
Variables_B77W__T_A320__T_B738__B752
Variables_B77W__T_A320__T_B738__B77W
Variables_B77W__T_A320__T_B77W__A320
Variables_B77W__T_A320__T_B77W__B752
Variables_B77W__T_A320__T_B77W__B77W
Variables_B77W__T_B738
Variables_B77W__T_B738__A320
Variables_B77W__T_B738__B752
Variables_B77W__T_B738__B77W
Variables_B77W__T_B738__T_A320__A320
Variables_B77W__T_B738__T_A320__B752
Variables_B77W__T_B738__T_A320__B77W
Variables_B77W__T_B738__T_B738__A320
Variables_B77W__T_B738__T_B738__B752
Variables_B77W__T_B738__T_B738__B77W
Variables_B77W__T_B738__T_B77W__A320
Variables_B77W__T_B738__T_B77W__B752
Variables_B77W__T_B738__T_B77W__B77W
Variables_B77W__T_B77W
Variables_B77W__T_B77W__A320
Variables_B77W__T_B77W__B752
Variables_B77W__T_B77W__B77W
Variables_B77W__T_B77W__T_A320__A320
Variables_B77W__T_B77W__T_A320__B752
Variables_B77W__T_B77W__T_A320__B77W
Variables_B77W__T_B77W__T_B738__A320
Variables_B77W__T_B77W__T_B738__B752
Variables_B77W__T_B77W__T_B738__B77W
Variables_B77W__T_B77W__T_B77W__A320
Variables_B77W__T_B77W__T_B77W__B752
Variables_B77W__T_B77W__T_B77W__B77W
Variables_T_A320__0
Variables_T_A320__T_A320
Variables_T_A320__T_B738
Variables_T_A320__T_B77W
Variables_T_B738__0
Variables_T_B738__T_A320
Variables_T_B738__T_B738
Variables_T_B738__T_B77W
Variables_T_B77W__0
Variables_T_B77W__T_A320
Variables_T_B77W__T_B738
Variables_T_B77W__T_B77W
End
